Gurobi Optimizer version 9.0.1 build v9.0.1rc0 (linux64)
Optimize a model with 160792 rows, 120793 columns and 440387 nonzeros
Model fingerprint: 0x96870844
Coefficient statistics:
  Matrix range     [5e-03, 4e+00]
  Objective range  [1e+00, 1e+00]
  Bounds range     [4e+00, 1e+01]
  RHS range        [5e-04, 2e-02]
Presolve removed 80782 rows and 40397 columns
Presolve time: 0.90s
Presolved: 80010 rows, 80396 columns, 279426 nonzeros
Ordering time: 0.98s

Barrier statistics:
 AA' NZ     : 4.348e+05
 Factor NZ  : 4.034e+06 (roughly 100 MBytes of memory)
 Factor Ops : 7.059e+08 (less than 1 second per iteration)
 Threads    : 1

                  Objective                Residual
Iter       Primal          Dual         Primal    Dual     Compl     Time
   0   4.00142564e+03 -1.40577289e+04  1.50e-01 1.82e-17  1.22e-01     2s
   1   4.08688658e+02 -2.89209726e+02  1.01e-02 5.99e-15  4.35e-03     3s
   2   1.20032527e+02 -6.24071534e+01  1.80e-03 5.26e-15  1.13e-03     3s
   3   7.00140425e+01  4.11307274e+01  1.12e-04 4.79e-14  1.79e-04     3s
   4   6.43236766e+01  5.41870435e+01  3.73e-05 3.50e-14  6.29e-05     3s
   5   6.20375677e+01  5.83499491e+01  1.24e-05 4.30e-14  2.29e-05     4s
   6   6.13800497e+01  6.01316237e+01  4.02e-06 3.16e-14  7.75e-06     4s
   7   6.12068190e+01  6.05704007e+01  2.06e-06 3.42e-14  3.95e-06     4s
   8   6.11403886e+01  6.07090876e+01  1.32e-06 3.79e-14  2.68e-06     4s
   9   6.11030964e+01  6.07751211e+01  8.57e-07 3.70e-14  2.03e-06     5s
  10   6.10878496e+01  6.08138708e+01  6.70e-07 4.96e-14  1.70e-06     5s
  11   6.10682009e+01  6.08978581e+01  4.28e-07 4.62e-14  1.06e-06     5s
  12   6.10590517e+01  6.09463865e+01  3.15e-07 3.91e-14  6.99e-07     5s
  13   6.10473835e+01  6.09790782e+01  1.70e-07 4.08e-14  4.24e-07     5s
  14   6.10417570e+01  6.09879443e+01  1.06e-07 4.75e-14  3.34e-07     6s
  15   6.10384919e+01  6.10067528e+01  6.56e-08 3.90e-14  1.97e-07     6s
  16   6.10352921e+01  6.10148564e+01  2.95e-08 3.97e-14  1.27e-07     6s
  17   6.10339297e+01  6.10183010e+01  1.55e-08 5.12e-14  9.70e-08     6s
  18   6.10332080e+01  6.10252123e+01  7.60e-09 4.22e-14  4.96e-08     6s
  19   6.10327047e+01  6.10281063e+01  2.46e-09 4.45e-14  2.85e-08     7s
  20   6.10324795e+01  6.10301198e+01  2.72e-11 3.64e-14  1.46e-08     7s
  21   6.10324448e+01  6.10321914e+01  6.78e-11 3.70e-14  1.57e-09     7s
  22   6.10324132e+01  6.10323768e+01  2.23e-11 3.55e-14  2.26e-10     8s
  23   6.10324122e+01  6.10324109e+01  1.05e-09 5.01e-14  8.08e-12     8s
  24   6.10324122e+01  6.10324110e+01  1.70e-06 4.09e-14  7.79e-12     8s
  25   6.10324122e+01  6.10324111e+01  1.70e-06 4.91e-14  7.10e-12     8s
  26   6.10324113e+01  6.10324120e+01  2.46e-06 5.08e-14  1.45e-12     9s
  27   6.10324113e+01  6.10324120e+01  3.23e-06 4.34e-14  1.43e-12     9s
  28   6.10324113e+01  6.10324120e+01  3.74e-06 3.69e-14  1.43e-12     9s
  29   6.10324062e+01  6.10324120e+01  4.96e-06 8.43e-14  1.52e-12    10s
  30   6.10324066e+01  6.10324119e+01  8.16e-06 1.95e-13  2.08e-12    10s
  31   6.10324070e+01  6.10324119e+01  1.07e-05 3.79e-14  2.13e-12    10s
  32   6.10324079e+01  6.10324119e+01  1.95e-05 2.23e-13  2.00e-12    11s
  33   6.10324052e+01  6.10324119e+01  4.31e-05 7.80e-14  2.18e-12    11s
  34   6.10324073e+01  6.10324120e+01  3.30e-05 3.72e-14  1.58e-12    11s
  35   6.10324075e+01  6.10324120e+01  3.97e-05 4.84e-14  1.44e-12    12s
  36   6.10324073e+01  6.10324120e+01  3.96e-05 4.57e-14  1.42e-12    12s
  37   6.10324075e+01  6.10324120e+01  4.97e-05 4.87e-14  1.40e-12    12s
  38   6.10324117e+01  6.10324120e+01  1.50e-05 4.78e-14  1.85e-13    13s
  39   6.10324122e+01  6.10324120e+01  2.25e-05 5.39e-14  1.85e-13    13s
  40   6.10324118e+01  6.10324120e+01  2.25e-05 1.28e-13  1.85e-13    13s
  41   6.10324106e+01  6.10324120e+01  1.87e-05 1.06e-12  3.07e-13    14s
  42   6.10324113e+01  6.10324120e+01  1.85e-05 5.33e-14  1.79e-13    14s
  43   6.10324109e+01  6.10324120e+01  1.79e-05 3.59e-14  1.72e-13    14s
  44   6.10324120e+01  6.10324120e+01  2.03e-06 3.47e-14  5.54e-17    14s
  45   6.10324120e+01  6.10324120e+01  1.08e-06 5.23e-14  5.54e-20    15s

Barrier solved model in 45 iterations and 14.74 seconds
Optimal objective 6.10324120e+01

Solver name: Gurobi
Solve time: 14.787673024
Termination status: OPTIMAL
Result count: 1
Primal status: FEASIBLE_POINT
Dual status: FEASIBLE_POINT
